c "803591.clq"
p edge 100 1344
e 1 17
e 1 18
e 1 19
e 1 20
e 1 21
e 1 23
e 1 24
e 1 25
e 1 26
e 1 27
e 1 28
e 1 35
e 1 36
e 1 45
e 1 46
e 1 50
e 1 53
e 1 55
e 1 58
e 1 66
e 1 67
e 1 71
e 1 80
e 1 81
e 1 83
e 1 87
e 1 88
e 1 89
e 1 99
e 2 17
e 2 18
e 2 19
e 2 20
e 2 21
e 2 22
e 2 23
e 2 25
e 2 26
e 2 28
e 2 30
e 2 33
e 2 35
e 2 44
e 2 48
e 2 52
e 2 63
e 2 67
e 2 76
e 2 82
e 2 85
e 2 90
e 2 93
e 2 94
e 2 96
e 3 17
e 3 18
e 3 19
e 3 21
e 3 22
e 3 23
e 3 26
e 3 27
e 3 31
e 3 34
e 3 39
e 3 40
e 3 41
e 3 42
e 3 44
e 3 46
e 3 51
e 3 52
e 3 55
e 3 56
e 3 58
e 3 59
e 3 60
e 3 61
e 3 63
e 3 71
e 3 72
e 3 75
e 3 85
e 3 86
e 3 89
e 3 92
e 3 93
e 3 97
e 4 17
e 4 18
e 4 19
e 4 20
e 4 23
e 4 27
e 4 28
e 4 29
e 4 31
e 4 32
e 4 33
e 4 38
e 4 40
e 4 43
e 4 46
e 4 48
e 4 51
e 4 53
e 4 59
e 4 71
e 4 77
e 4 83
e 4 84
e 4 85
e 4 95
e 4 96
e 4 100
e 5 17
e 5 18
e 5 19
e 5 20
e 5 21
e 5 22
e 5 23
e 5 24
e 5 25
e 5 29
e 5 31
e 5 33
e 5 34
e 5 35
e 5 37
e 5 40
e 5 42
e 5 48
e 5 54
e 5 55
e 5 61
e 5 65
e 5 66
e 5 67
e 5 73
e 5 74
e 5 76
e 5 78
e 5 84
e 5 88
e 5 89
e 5 90
e 5 91
e 5 97
e 6 17
e 6 18
e 6 19
e 6 21
e 6 23
e 6 25
e 6 27
e 6 29
e 6 30
e 6 33
e 6 35
e 6 37
e 6 42
e 6 48
e 6 50
e 6 53
e 6 64
e 6 65
e 6 69
e 6 70
e 6 74
e 6 80
e 6 85
e 6 88
e 6 92
e 6 97
e 7 17
e 7 18
e 7 19
e 7 20
e 7 24
e 7 26
e 7 27
e 7 31
e 7 38
e 7 40
e 7 41
e 7 46
e 7 47
e 7 48
e 7 49
e 7 60
e 7 63
e 7 65
e 7 66
e 7 68
e 7 74
e 7 81
e 7 87
e 8 17
e 8 18
e 8 19
e 8 20
e 8 21
e 8 22
e 8 23
e 8 24
e 8 52
e 8 56
e 8 61
e 8 64
e 8 72
e 8 79
e 8 95
e 8 99
e 9 17
e 9 18
e 9 19
e 9 20
e 9 21
e 9 22
e 9 23
e 9 26
e 9 29
e 9 31
e 9 32
e 9 33
e 9 37
e 9 43
e 9 44
e 9 45
e 9 49
e 9 51
e 9 54
e 9 58
e 9 68
e 9 79
e 9 80
e 10 17
e 10 18
e 10 19
e 10 20
e 10 22
e 10 24
e 10 25
e 10 27
e 10 29
e 10 33
e 10 36
e 10 38
e 10 41
e 10 45
e 10 54
e 10 56
e 10 63
e 10 65
e 10 66
e 10 81
e 10 90
e 10 93
e 10 95
e 11 17
e 11 22
e 11 24
e 11 34
e 11 37
e 11 41
e 11 50
e 11 51
e 11 57
e 11 60
e 11 83
e 11 98
e 12 17
e 12 18
e 12 19
e 12 20
e 12 21
e 12 23
e 12 25
e 12 26
e 12 28
e 12 30
e 12 32
e 12 36
e 12 39
e 12 45
e 12 54
e 12 57
e 12 61
e 12 73
e 12 82
e 12 83
e 12 87
e 12 90
e 13 17
e 13 18
e 13 20
e 13 21
e 13 22
e 13 24
e 13 26
e 13 27
e 13 33
e 13 39
e 13 42
e 13 43
e 13 49
e 13 69
e 13 87
e 13 89
e 13 93
e 13 99
e 13 100
e 14 17
e 14 18
e 14 19
e 14 20
e 14 21
e 14 22
e 14 23
e 14 24
e 14 25
e 14 27
e 14 28
e 14 30
e 14 31
e 14 33
e 14 35
e 14 36
e 14 37
e 14 39
e 14 45
e 14 46
e 14 47
e 14 49
e 14 52
e 14 60
e 14 66
e 14 71
e 14 73
e 14 82
e 14 90
e 14 95
e 14 99
e 15 17
e 15 18
e 15 19
e 15 20
e 15 21
e 15 22
e 15 23
e 15 24
e 15 25
e 15 28
e 15 29
e 15 31
e 15 33
e 15 34
e 15 37
e 15 41
e 15 42
e 15 45
e 15 51
e 15 55
e 15 60
e 15 71
e 15 72
e 15 73
e 15 76
e 15 80
e 15 82
e 15 91
e 15 92
e 16 17
e 16 18
e 16 19
e 16 20
e 16 21
e 16 22
e 16 24
e 16 29
e 16 37
e 16 45
e 16 55
e 16 58
e 16 63
e 16 85
e 16 89
e 17 18
e 17 19
e 17 20
e 17 21
e 17 22
e 17 24
e 17 25
e 17 26
e 17 27
e 17 28
e 17 29
e 17 30
e 17 31
e 17 32
e 17 35
e 17 36
e 17 38
e 17 44
e 17 46
e 17 47
e 17 49
e 17 50
e 17 54
e 17 56
e 17 57
e 17 59
e 17 60
e 17 62
e 17 63
e 17 64
e 17 65
e 17 67
e 17 69
e 17 70
e 17 73
e 17 74
e 17 75
e 17 76
e 17 77
e 17 81
e 17 96
e 17 97
e 17 98
e 18 19
e 18 20
e 18 21
e 18 22
e 18 23
e 18 24
e 18 25
e 18 26
e 18 27
e 18 28
e 18 30
e 18 31
e 18 32
e 18 33
e 18 34
e 18 36
e 18 37
e 18 38
e 18 39
e 18 40
e 18 41
e 18 42
e 18 43
e 18 44
e 18 47
e 18 49
e 18 54
e 18 57
e 18 58
e 18 59
e 18 60
e 18 64
e 18 67
e 18 70
e 18 72
e 18 73
e 18 76
e 18 79
e 18 80
e 18 84
e 18 87
e 18 93
e 18 94
e 18 97
e 18 99
e 19 20
e 19 21
e 19 22
e 19 23
e 19 25
e 19 26
e 19 28
e 19 29
e 19 31
e 19 32
e 19 34
e 19 35
e 19 36
e 19 37
e 19 40
e 19 41
e 19 43
e 19 44
e 19 47
e 19 50
e 19 51
e 19 52
e 19 53
e 19 57
e 19 58
e 19 60
e 19 61
e 19 62
e 19 64
e 19 65
e 19 66
e 19 68
e 19 69
e 19 71
e 19 73
e 19 74
e 19 75
e 19 78
e 19 80
e 19 81
e 19 84
e 19 87
e 19 89
e 19 92
e 19 94
e 19 95
e 19 96
e 19 98
e 20 21
e 20 22
e 20 23
e 20 24
e 20 25
e 20 26
e 20 28
e 20 29
e 20 30
e 20 31
e 20 32
e 20 33
e 20 34
e 20 35
e 20 36
e 20 38
e 20 39
e 20 41
e 20 43
e 20 44
e 20 50
e 20 53
e 20 56
e 20 57
e 20 58
e 20 60
e 20 66
e 20 68
e 20 70
e 20 76
e 20 77
e 20 81
e 20 95
e 20 98
e 20 99
e 20 100
e 21 22
e 21 23
e 21 24
e 21 25
e 21 26
e 21 27
e 21 28
e 21 30
e 21 32
e 21 34
e 21 35
e 21 37
e 21 40
e 21 42
e 21 43
e 21 44
e 21 45
e 21 46
e 21 47
e 21 48
e 21 51
e 21 55
e 21 58
e 21 59
e 21 60
e 21 66
e 21 67
e 21 71
e 21 76
e 21 77
e 21 86
e 21 89
e 21 91
e 21 93
e 21 95
e 22 23
e 22 24
e 22 25
e 22 26
e 22 27
e 22 29
e 22 30
e 22 32
e 22 33
e 22 34
e 22 35
e 22 36
e 22 37
e 22 38
e 22 41
e 22 42
e 22 43
e 22 47
e 22 48
e 22 49
e 22 50
e 22 52
e 22 53
e 22 55
e 22 58
e 22 61
e 22 62
e 22 65
e 22 67
e 22 71
e 22 72
e 22 82
e 22 83
e 22 90
e 22 92
e 22 95
e 22 97
e 23 24
e 23 25
e 23 26
e 23 27
e 23 28
e 23 29
e 23 30
e 23 31
e 23 32
e 23 33
e 23 34
e 23 35
e 23 36
e 23 37
e 23 38
e 23 40
e 23 42
e 23 43
e 23 44
e 23 45
e 23 46
e 23 49
e 23 51
e 23 52
e 23 53
e 23 54
e 23 55
e 23 56
e 23 60
e 23 61
e 23 64
e 23 66
e 23 68
e 23 69
e 23 71
e 23 74
e 23 78
e 23 79
e 23 80
e 23 84
e 23 85
e 23 87
e 23 88
e 23 94
e 23 96
e 23 100
e 24 25
e 24 26
e 24 27
e 24 28
e 24 29
e 24 30
e 24 31
e 24 32
e 24 34
e 24 36
e 24 39
e 24 42
e 24 48
e 24 51
e 24 52
e 24 56
e 24 59
e 24 61
e 24 62
e 24 63
e 24 64
e 24 67
e 24 71
e 24 72
e 24 74
e 24 80
e 24 85
e 24 88
e 24 90
e 24 92
e 24 94
e 24 98
e 25 26
e 25 27
e 25 28
e 25 29
e 25 30
e 25 31
e 25 32
e 25 35
e 25 36
e 25 37
e 25 39
e 25 40
e 25 41
e 25 42
e 25 47
e 25 49
e 25 50
e 25 53
e 25 56
e 25 57
e 25 58
e 25 59
e 25 63
e 25 68
e 25 69
e 25 70
e 25 74
e 25 76
e 25 77
e 25 79
e 25 83
e 25 86
e 25 88
e 25 89
e 25 91
e 25 96
e 25 97
e 25 99
e 26 27
e 26 28
e 26 29
e 26 30
e 26 32
e 26 34
e 26 37
e 26 38
e 26 39
e 26 41
e 26 44
e 26 45
e 26 48
e 26 53
e 26 55
e 26 59
e 26 62
e 26 63
e 26 65
e 26 69
e 26 70
e 26 74
e 26 82
e 26 84
e 26 88
e 26 94
e 27 28
e 27 30
e 27 31
e 27 33
e 27 34
e 27 37
e 27 39
e 27 40
e 27 41
e 27 44
e 27 45
e 27 46
e 27 47
e 27 49
e 27 50
e 27 51
e 27 52
e 27 54
e 27 55
e 27 56
e 27 58
e 27 59
e 27 60
e 27 62
e 27 63
e 27 65
e 27 66
e 27 67
e 27 68
e 27 70
e 27 72
e 27 75
e 27 79
e 27 83
e 27 85
e 27 86
e 27 92
e 27 99
e 28 29
e 28 30
e 28 32
e 28 33
e 28 38
e 28 40
e 28 44
e 28 47
e 28 49
e 28 57
e 28 68
e 28 69
e 28 75
e 28 76
e 28 79
e 28 83
e 28 84
e 28 88
e 28 93
e 28 94
e 29 30
e 29 31
e 29 35
e 29 36
e 29 38
e 29 39
e 29 40
e 29 50
e 29 52
e 29 54
e 29 58
e 29 60
e 29 61
e 29 62
e 29 63
e 29 64
e 29 65
e 29 66
e 29 67
e 29 72
e 29 76
e 29 78
e 29 80
e 29 81
e 29 82
e 29 87
e 29 90
e 29 91
e 29 93
e 29 96
e 29 97
e 29 98
e 29 100
e 30 32
e 30 34
e 30 35
e 30 61
e 30 62
e 30 76
e 30 81
e 30 84
e 30 86
e 30 87
e 30 88
e 30 90
e 30 91
e 30 100
e 31 32
e 31 33
e 31 34
e 31 35
e 31 36
e 31 38
e 31 39
e 31 42
e 31 45
e 31 47
e 31 48
e 31 49
e 31 52
e 31 54
e 31 72
e 31 74
e 31 75
e 31 79
e 31 83
e 31 85
e 31 86
e 31 87
e 31 90
e 31 100
e 32 34
e 32 40
e 32 43
e 32 44
e 32 48
e 32 54
e 32 55
e 32 56
e 32 57
e 32 63
e 32 66
e 32 70
e 32 72
e 32 73
e 32 74
e 32 77
e 32 79
e 32 91
e 33 35
e 33 36
e 33 39
e 33 41
e 33 47
e 33 57
e 33 59
e 33 62
e 33 64
e 33 100
e 34 38
e 34 39
e 34 40
e 34 41
e 34 43
e 34 45
e 34 46
e 34 47
e 34 49
e 34 50
e 34 53
e 34 61
e 34 62
e 34 63
e 34 66
e 34 80
e 34 88
e 34 96
e 34 97
e 35 36
e 35 37
e 35 38
e 35 39
e 35 43
e 35 44
e 35 45
e 35 46
e 35 52
e 35 55
e 35 62
e 35 63
e 35 67
e 35 69
e 35 70
e 35 75
e 35 89
e 35 91
e 35 96
e 35 98
e 36 38
e 36 42
e 36 43
e 36 45
e 36 47
e 36 55
e 36 56
e 36 59
e 36 62
e 36 63
e 36 64
e 36 75
e 36 81
e 36 83
e 36 86
e 36 88
e 36 89
e 37 38
e 37 40
e 37 41
e 37 44
e 37 47
e 37 49
e 37 51
e 37 65
e 37 66
e 37 67
e 37 68
e 37 69
e 37 76
e 37 78
e 37 79
e 37 80
e 37 86
e 37 87
e 37 93
e 37 94
e 38 39
e 38 42
e 38 43
e 38 46
e 38 48
e 38 49
e 38 55
e 38 56
e 38 57
e 38 62
e 38 67
e 38 68
e 38 70
e 38 71
e 38 77
e 38 78
e 38 79
e 38 82
e 38 92
e 38 98
e 38 99
e 39 40
e 39 68
e 39 74
e 39 77
e 39 78
e 39 81
e 40 41
e 40 42
e 40 43
e 40 51
e 40 54
e 40 56
e 40 61
e 40 64
e 40 69
e 40 72
e 40 77
e 40 80
e 40 81
e 40 82
e 40 88
e 40 89
e 40 91
e 40 92
e 40 96
e 41 42
e 41 43
e 41 44
e 41 46
e 41 50
e 41 52
e 41 54
e 41 57
e 41 72
e 41 78
e 41 79
e 41 81
e 41 86
e 41 89
e 42 46
e 42 47
e 42 53
e 42 59
e 42 60
e 42 62
e 42 69
e 42 78
e 42 80
e 42 89
e 42 94
e 42 100
e 43 45
e 43 50
e 43 52
e 43 64
e 43 79
e 43 83
e 43 94
e 44 46
e 44 48
e 44 50
e 44 51
e 44 54
e 44 57
e 44 58
e 44 68
e 44 70
e 44 85
e 44 86
e 44 100
e 45 46
e 45 48
e 45 50
e 45 53
e 45 59
e 45 61
e 45 62
e 45 67
e 45 69
e 45 97
e 45 99
e 46 48
e 46 56
e 46 57
e 46 58
e 46 62
e 46 66
e 46 76
e 46 92
e 46 99
e 47 48
e 47 50
e 47 51
e 47 52
e 47 53
e 47 55
e 47 56
e 47 64
e 47 69
e 47 73
e 47 78
e 47 79
e 47 85
e 48 49
e 48 56
e 48 57
e 48 59
e 48 61
e 48 65
e 48 71
e 48 73
e 48 74
e 48 76
e 48 77
e 48 78
e 48 85
e 48 90
e 48 92
e 48 97
e 49 51
e 49 53
e 49 64
e 49 69
e 49 86
e 49 92
e 49 95
e 49 100
e 50 51
e 50 53
e 50 59
e 50 65
e 50 72
e 50 73
e 50 77
e 50 78
e 50 79
e 50 82
e 50 96
e 50 100
e 51 52
e 51 67
e 51 76
e 51 84
e 51 90
e 51 93
e 52 53
e 52 54
e 52 67
e 52 72
e 52 82
e 52 94
e 53 54
e 53 55
e 53 58
e 53 60
e 53 61
e 53 66
e 53 71
e 53 73
e 53 74
e 53 75
e 53 82
e 53 84
e 53 88
e 53 90
e 53 91
e 53 93
e 53 94
e 53 98
e 54 68
e 54 70
e 54 73
e 54 75
e 54 99
e 55 57
e 55 71
e 55 77
e 55 78
e 55 81
e 55 88
e 56 64
e 56 71
e 56 72
e 56 74
e 56 81
e 56 90
e 56 93
e 56 95
e 56 96
e 56 99
e 56 100
e 57 58
e 57 61
e 57 78
e 57 86
e 57 87
e 57 91
e 57 94
e 57 97
e 57 99
e 58 59
e 58 60
e 58 63
e 58 65
e 58 68
e 58 85
e 58 89
e 59 65
e 59 68
e 59 70
e 59 73
e 59 85
e 59 95
e 60 100
e 61 70
e 61 75
e 61 82
e 62 64
e 62 69
e 62 70
e 62 71
e 62 74
e 62 93
e 62 96
e 63 65
e 63 81
e 63 82
e 64 75
e 64 82
e 64 84
e 64 95
e 65 75
e 65 91
e 66 75
e 66 80
e 66 81
e 66 83
e 66 84
e 66 92
e 67 68
e 67 70
e 67 75
e 67 77
e 67 85
e 67 86
e 67 93
e 67 98
e 68 73
e 68 84
e 68 86
e 68 87
e 68 90
e 68 92
e 68 94
e 68 98
e 69 75
e 70 73
e 70 80
e 70 87
e 70 91
e 71 72
e 71 77
e 71 84
e 71 88
e 72 77
e 72 84
e 72 95
e 72 98
e 73 76
e 73 79
e 73 83
e 73 97
e 73 100
e 74 78
e 74 86
e 74 87
e 75 78
e 75 80
e 75 82
e 75 95
e 76 77
e 76 83
e 76 92
e 76 93
e 77 83
e 78 89
e 79 83
e 79 89
e 79 91
e 80 91
e 80 98
e 81 86
e 81 94
e 82 84
e 82 88
e 82 97
e 83 90
e 84 85
e 84 93
e 84 96
e 84 97
e 85 91
e 85 98
e 86 87
e 86 98
e 87 95
e 87 96
e 88 100
e 89 92
e 89 98
e 90 94
e 92 99
e 93 96
e 94 95
e 94 97
e 96 99
